1943.0
[[ 4. 12. 19. 17. 16.  3. 11.  7.  6. 10.  2. 18.  1. 14.  8. 13. 15.  9.
   0.  5.]
 [ 4. 12. 19. 17. 16.  3. 11.  7.  6. 10.  2. 18.  1. 14.  8. 13. 15.  9.
   0.  5.]
 [ 4. 12. 19. 17. 16.  3. 11.  7.  6. 10.  2. 18.  1. 14.  8. 13. 15.  9.
   0.  5.]
 [ 4. 12. 19. 17. 16.  3. 11.  7.  6. 10.  2. 18.  1. 14.  8. 13. 15.  9.
   0.  5.]
 [ 4. 12. 19. 17. 16.  3. 11.  7.  6. 10.  2. 18.  1. 14.  8. 13. 15.  9.
   0.  5.]
 [ 4. 12. 19. 17. 16.  3. 11.  7.  6. 10.  2. 18.  1. 14.  8. 13. 15.  9.
   0.  5.]
 [ 4. 12. 19. 17. 16.  3. 11.  7.  6. 10.  2. 18.  1. 14.  8. 13. 15.  9.
   0.  5.]
 [ 4. 12. 19. 17. 16.  3. 11.  7.  6. 10.  2. 18.  1. 14.  8. 13. 15.  9.
   0.  5.]
 [ 4. 12. 19. 17. 16.  3. 11.  7.  6. 10.  2. 18.  1. 14.  8. 13. 15.  9.
   0.  5.]
 [ 4. 12. 19. 17. 16.  3. 11.  7.  6. 10.  2. 18.  1. 14.  8. 13. 15.  9.
   0.  5.]
 [ 4. 12. 19. 17. 16.  3. 11.  7.  6. 10.  2. 18.  1. 14.  8. 13. 15.  9.
   0.  5.]
 [ 4. 12. 19. 17. 16.  3. 11.  7.  6. 10.  2. 18.  1. 14.  8. 13. 15.  9.
   0.  5.]
 [ 4. 12. 19. 17. 16.  3. 11.  7.  6. 10.  2. 18.  1. 14.  8. 13. 15.  9.
   0.  5.]
 [ 4. 12. 19. 17. 16.  3. 11.  7.  6. 10.  2. 18.  1. 14.  8. 13. 15.  9.
   0.  5.]
 [ 4. 12. 19. 17. 16.  3. 11.  7.  6. 10.  2. 18.  1. 14.  8. 13. 15.  9.
   0.  5.]]
